WARNING: for repeatability, setting FPU to use double precision
============================[ Problem Statistics ]=============================
|                                                                             |
|  Number of variables:         14399                                         |
|  Number of clauses:          229796                                         |
|  Parse time:                   0.07 s                                       |
|  Simplification time:          0.00 s                                       |
|                                                                             |
===============================================================================
Solved by simplification
restarts              : 0
conflicts             : 0              (0 /sec)
decisions             : 0              (-nan % random) (0 /sec)
propagations          : 10164          (142919 /sec)
conflict literals     : 0              (-nan % deleted)
Memory used           : 32.00 MB
CPU time              : 0.071117 s

UNSATISFIABLE
